p cnf 113 415
12 13 14 15 16 17 18 19 20 21 22 0
35 36 37 38 39 40 41 42 43 44 0
56 57 58 59 60 61 62 63 64 65 66 0
-1 -12 0
-1 -23 0
-1 -35 0
-1 -45 0
-1 -56 0
-1 -67 0
-1 -79 0
-1 -92 0
-1 -102 0
-12 -23 0
-12 -35 0
-12 -45 0
-12 -56 0
-12 -67 0
-12 -79 0
-12 -92 0
-12 -102 0
-23 -35 0
-23 -45 0
-23 -56 0
-23 -67 0
-23 -79 0
-23 -92 0
-23 -102 0
-35 -45 0
-35 -56 0
-35 -67 0
-35 -79 0
-35 -92 0
-35 -102 0
-45 -56 0
-45 -67 0
-45 -79 0
-45 -92 0
-45 -102 0
-56 -67 0
-56 -79 0
-56 -92 0
-56 -102 0
-67 -79 0
-67 -92 0
-67 -102 0
-79 -92 0
-79 -102 0
-92 -102 0
-2 -13 0
-2 -24 0
-2 -36 0
-2 -57 0
-2 -68 0
-2 -80 0
-2 -103 0
-13 -24 0
-13 -36 0
-13 -57 0
-13 -68 0
-13 -80 0
-13 -103 0
-24 -36 0
-24 -57 0
-24 -68 0
-24 -80 0
-24 -103 0
-36 -57 0
-36 -68 0
-36 -80 0
-36 -103 0
-57 -68 0
-57 -80 0
-57 -103 0
-68 -80 0
-68 -103 0
-80 -103 0
-14 -25 0
-14 -37 0
-14 -46 0
-14 -58 0
-14 -69 0
-14 -81 0
-14 -93 0
-14 -104 0
-25 -37 0
-25 -46 0
-25 -58 0
-25 -69 0
-25 -81 0
-25 -93 0
-25 -104 0
-37 -46 0
-37 -58 0
-37 -69 0
-37 -81 0
-37 -93 0
-37 -104 0
-46 -58 0
-46 -69 0
-46 -81 0
-46 -93 0
-46 -104 0
-58 -69 0
-58 -81 0
-58 -93 0
-58 -104 0
-69 -81 0
-69 -93 0
-69 -104 0
-81 -93 0
-81 -104 0
-93 -104 0
-3 -15 0
-3 -26 0
-3 -38 0
-3 -47 0
-3 -59 0
-3 -82 0
-3 -94 0
-3 -105 0
-15 -26 0
-15 -38 0
-15 -47 0
-15 -59 0
-15 -82 0
-15 -94 0
-15 -105 0
-26 -38 0
-26 -47 0
-26 -59 0
-26 -82 0
-26 -94 0
-26 -105 0
-38 -47 0
-38 -59 0
-38 -82 0
-38 -94 0
-38 -105 0
-47 -59 0
-47 -82 0
-47 -94 0
-47 -105 0
-59 -82 0
-59 -94 0
-59 -105 0
-82 -94 0
-82 -105 0
-94 -105 0
-16 -27 0
-16 -39 0
-16 -60 0
-16 -70 0
-16 -83 0
-16 -95 0
-16 -106 0
-27 -39 0
-27 -60 0
-27 -70 0
-27 -83 0
-27 -95 0
-27 -106 0
-39 -60 0
-39 -70 0
-39 -83 0
-39 -95 0
-39 -106 0
-60 -70 0
-60 -83 0
-60 -95 0
-60 -106 0
-70 -83 0
-70 -95 0
-70 -106 0
-83 -95 0
-83 -106 0
-95 -106 0
-4 -17 0
-4 -28 0
-4 -48 0
-4 -71 0
-4 -84 0
-4 -96 0
-4 -107 0
-17 -28 0
-17 -48 0
-17 -71 0
-17 -84 0
-17 -96 0
-17 -107 0
-28 -48 0
-28 -71 0
-28 -84 0
-28 -96 0
-28 -107 0
-48 -71 0
-48 -84 0
-48 -96 0
-48 -107 0
-71 -84 0
-71 -96 0
-71 -107 0
-84 -96 0
-84 -107 0
-96 -107 0
-5 -18 0
-5 -29 0
-5 -40 0
-5 -49 0
-5 -61 0
-5 -72 0
-5 -85 0
-5 -97 0
-18 -29 0
-18 -40 0
-18 -49 0
-18 -61 0
-18 -72 0
-18 -85 0
-18 -97 0
-29 -40 0
-29 -49 0
-29 -61 0
-29 -72 0
-29 -85 0
-29 -97 0
-40 -49 0
-40 -61 0
-40 -72 0
-40 -85 0
-40 -97 0
-49 -61 0
-49 -72 0
-49 -85 0
-49 -97 0
-61 -72 0
-61 -85 0
-61 -97 0
-72 -85 0
-72 -97 0
-85 -97 0
-6 -30 0
-6 -50 0
-6 -62 0
-6 -73 0
-6 -86 0
-6 -108 0
-30 -50 0
-30 -62 0
-30 -73 0
-30 -86 0
-30 -108 0
-50 -62 0
-50 -73 0
-50 -86 0
-50 -108 0
-62 -73 0
-62 -86 0
-62 -108 0
-73 -86 0
-73 -108 0
-86 -108 0
-7 -31 0
-7 -41 0
-7 -51 0
-7 -63 0
-7 -74 0
-7 -87 0
-7 -98 0
-7 -109 0
-31 -41 0
-31 -51 0
-31 -63 0
-31 -74 0
-31 -87 0
-31 -98 0
-31 -109 0
-41 -51 0
-41 -63 0
-41 -74 0
-41 -87 0
-41 -98 0
-41 -109 0
-51 -63 0
-51 -74 0
-51 -87 0
-51 -98 0
-51 -109 0
-63 -74 0
-63 -87 0
-63 -98 0
-63 -109 0
-74 -87 0
-74 -98 0
-74 -109 0
-87 -98 0
-87 -109 0
-98 -109 0
-19 -32 0
-19 -42 0
-19 -52 0
-19 -64 0
-19 -75 0
-19 -88 0
-19 -110 0
-32 -42 0
-32 -52 0
-32 -64 0
-32 -75 0
-32 -88 0
-32 -110 0
-42 -52 0
-42 -64 0
-42 -75 0
-42 -88 0
-42 -110 0
-52 -64 0
-52 -75 0
-52 -88 0
-52 -110 0
-64 -75 0
-64 -88 0
-64 -110 0
-75 -88 0
-75 -110 0
-88 -110 0
-8 -76 0
-8 -89 0
-8 -111 0
-76 -89 0
-76 -111 0
-89 -111 0
-9 -20 0
-9 -43 0
-9 -53 0
-9 -65 0
-9 -77 0
-9 -90 0
-9 -99 0
-20 -43 0
-20 -53 0
-20 -65 0
-20 -77 0
-20 -90 0
-20 -99 0
-43 -53 0
-43 -65 0
-43 -77 0
-43 -90 0
-43 -99 0
-53 -65 0
-53 -77 0
-53 -90 0
-53 -99 0
-65 -77 0
-65 -90 0
-65 -99 0
-77 -90 0
-77 -99 0
-90 -99 0
-10 -21 0
-10 -33 0
-10 -44 0
-10 -54 0
-10 -78 0
-10 -100 0
-10 -112 0
-21 -33 0
-21 -44 0
-21 -54 0
-21 -78 0
-21 -100 0
-21 -112 0
-33 -44 0
-33 -54 0
-33 -78 0
-33 -100 0
-33 -112 0
-44 -54 0
-44 -78 0
-44 -100 0
-44 -112 0
-54 -78 0
-54 -100 0
-54 -112 0
-78 -100 0
-78 -112 0
-100 -112 0
-11 -22 0
-11 -34 0
-11 -55 0
-11 -66 0
-11 -91 0
-11 -101 0
-11 -113 0
-22 -34 0
-22 -55 0
-22 -66 0
-22 -91 0
-22 -101 0
-22 -113 0
-34 -55 0
-34 -66 0
-34 -91 0
-34 -101 0
-34 -113 0
-55 -66 0
-55 -91 0
-55 -101 0
-55 -113 0
-66 -91 0
-66 -101 0
-66 -113 0
-91 -101 0
-91 -113 0
-101 -113 0
